1 1024 5
2 874 5
3 867 5
4 818 5
5 809 5
10 795 5
12 793 5
13 787 5
14 781 5
19 771 5
53 759 5
63 755 5
103 751 5
127 748 5
229 746 5
257 735 5
386 734 5
499 709 5



1 1009 5
2 850 5
3 818 5
7 787 5
12 765 5
27 757 5
63 747 5
130 742 5
360 734 5
438 721 5



1 855 5
2 840 5
3 813 5
12 812 5
17 761 5
50 755 5
88 737 5
112 733 5



1 998 5
2 832 5
4 820 5
7 796 5
10 759 5
51 749 5
66 747 5
259 742 5
328 737 5
574 735 5



1 955 5
2 863 5
3 820 5
5 809 5
7 792 5
12 788 5
14 772 5
40 759 5
42 756 5
48 741 5
189 736 5
251 716 5



